p cnf 10 50
-4 -5 -2 0
-10 -5 -3 0
3 -4 -7 0
3 4 10 0
-10 -5 -1 0
-1 -10 6 0
2 5 -6 0
-5 -2 -3 0
-5 -7 10 0
-7 3 -1 0
10 -5 9 0
2 -4 -3 0
9 5 -2 0
7 -9 2 0
5 -10 8 0
-6 -1 -8 0
3 -5 -7 0
1 5 4 0
3 5 1 0
-5 -3 -1 0
-5 3 4 0
3 7 -8 0
-3 10 7 0
9 -2 -8 0
2 -6 9 0
-10 3 8 0
-9 -6 2 0
10 3 5 0
-1 -2 -9 0
2 10 -1 0
-5 9 -1 0
-10 3 8 0
-2 8 -1 0
-2 10 4 0
2 3 -7 0
4 -1 -7 0
10 -2 7 0
1 -4 5 0
-4 -9 -2 0
10 3 9 0
-1 -2 5 0
-8 5 1 0
8 -2 9 0
2 1 3 0
3 5 -1 0
6 9 -3 0
5 -4 -10 0
6 -9 7 0
-1 10 4 0
-2 -8 -10 0
